c SAT Generator for power-law distributed variable frequencies
c -g u -v 20 -c 91 -k 3 -p 2.750000 -b 3.200000 -f /home/schmidt/Devel/ni-kop-sat/data/ensemble/ruf20-91/ruf20-91-585 -u 1 -U 1 -s 1411847361
p cnf 20 91
-1 5 14 0
2 -6 -16 0
-5 8 -18 0
-10 -12 15 0
4 -11 -12 0
-7 15 18 0
3 -17 -20 0
4 -14 -16 0
6 17 -18 0
-7 -15 18 0
-5 13 -16 0
3 5 -20 0
15 17 -20 0
-4 -8 -13 0
-7 -13 -17 0
5 -9 18 0
-12 14 15 0
-3 8 -17 0
-1 -11 -13 0
1 16 -19 0
-5 -13 15 0
2 -10 12 0
-4 -18 20 0
1 -10 -19 0
10 -15 -19 0
-3 7 -15 0
4 10 -17 0
-2 9 14 0
-10 -17 -19 0
5 -9 11 0
-4 12 16 0
-15 -16 -18 0
3 -7 14 0
-3 -11 -12 0
-4 9 -17 0
-6 -8 -17 0
-2 -6 16 0
-5 -6 -16 0
-3 -13 19 0
-5 -13 20 0
-11 14 20 0
1 2 4 0
6 11 -17 0
15 -17 -20 0
8 17 19 0
10 14 18 0
1 -9 11 0
1 4 15 0
-4 -5 14 0
12 13 -18 0
2 -4 -11 0
4 -10 -18 0
-2 12 -13 0
2 15 16 0
2 -11 12 0
5 12 17 0
1 -7 14 0
-8 -16 18 0
-6 11 -17 0
4 -13 -17 0
3 10 18 0
5 -10 -11 0
1 -5 -12 0
-2 14 -15 0
9 -13 -18 0
-3 -6 19 0
2 -6 17 0
-1 3 8 0
4 -15 18 0
-6 9 -10 0
15 16 -20 0
3 9 -18 0
5 8 17 0
7 10 19 0
-2 5 -12 0
-9 -15 19 0
-9 10 -14 0
1 -12 -20 0
-9 11 -18 0
-2 -4 -6 0
5 -11 -18 0
6 -7 16 0
2 -6 -10 0
2 4 -16 0
-8 9 17 0
-4 15 -17 0
-6 11 -16 0
1 -11 -15 0
-4 6 -15 0
5 10 11 0
2 3 -10 0
